src/LKH/IO/anjos-60-05.tour
NAME : anjos-60-05.-111.tour
COMMENT : Length = -111
COMMENT : Found by LKH [Keld Helsgaun] Sun Apr 13 17:05:00 2025
TYPE : TOUR
DIMENSION : 60
TOUR_SECTION
1
21
20
8
47
53
38
4
37
19
9
10
12
23
59
41
54
60
7
16
36
35
13
25
45
30
39
33
56
58
43
44
11
29
31
14
22
18
5
49
57
3
32
2
46
6
48
17
24
26
42
27
15
34
52
28
51
50
40
55
-1
EOF
